Generated by run_strain_scan.py – edit as needed
&CONTROL
  calculation   = 'scf'
  prefix        = 'Li2NH_ci'
  pseudo_dir    = './pseudo'
  outdir        = './tmp'
/
&SYSTEM
  ibrav         = 0
  nat           = 4
  ntyp          = 3
  ecutwfc       = 30
  ecutrho       = 240
  occupations   = 'smearing'
  smearing      = 'gaussian'
  degauss       = 0.01
  assume_isolated = '2D'
/
&ELECTRONS
  conv_thr       = 1.0d-8
  mixing_beta    = 0.3
/
ATOMIC_SPECIES
  Li  6.941  Li.pbe-s-rrkjus_psl.1.0.0.UPF
  N  14.007  N.pbe-n-rrkjus_psl.1.0.0.UPF
  H   1.008  H.pbe-rrkjus_psl.1.0.0.UPF

CELL_PARAMETERS angstrom
   3.484800  0.000  0.000
  -1.742  3.018  0.000
   0.000  0.000 20.000

ATOMIC_POSITIONS crystal
Li 0.33333 0.66667 0.12500
Li 0.66667 0.33333 0.87500
N  0.00000 0.00000 0.00000
H  0.00000 0.00000 0.05000

K_POINTS automatic
 2 2 1 0 0 0 