&CONTROL
   calculation = 'relax'
   restart_mode = 'from_scratch'
   prefix = 'BeC3H9'
   outdir = './tmp'
   pseudo_dir = './pseudo'
   etot_conv_thr = 1.0d-6
   forc_conv_thr = 1.0d-5
   nstep = 200
/

&SYSTEM
   ibrav = 4
   celldm(1) = 9.1664  ! a = 4.85 A in bohr
   celldm(3) = 2.4742  ! c/a = 12.0/4.85
   nat = 15
   ntyp = 3
   ecutwfc = 80.0
   ecutrho = 640.0
   occupations = 'smearing'
   smearing = 'gaussian'
   degauss = 0.02
   assume_isolated = '2D'
/

&ELECTRONS
   conv_thr = 1.0d-10
   mixing_beta = 0.3
   mixing_mode = 'plain'
   electron_maxstep = 100
/

&IONS
   ion_dynamics = 'bfgs'
/

&CELL
   cell_dynamics = 'bfgs'
   press_conv_thr = 0.1
/

ATOMIC_SPECIES
Be  9.012182  Be.pbe-spn-kjpaw_psl.1.0.0.UPF
C   12.0107   C.pbe-n-kjpaw_psl.1.0.0.UPF
H   1.00794   H.pbe-kjpaw_psl.1.0.0.UPF

ATOMIC_POSITIONS crystal
Be  0.00000  0.00000  0.00000
Be  0.33333  0.66667  0.00000
Be  0.66667  0.33333  0.00000
C   0.16667  0.33333  0.08500
C   0.50000  0.00000  0.08500
C   0.83333  0.66667  0.08500
H   0.28500  0.14250  0.12000
H   0.14250  0.42750  0.12000
H   0.57250  0.85750  0.12000
H   0.00000  0.50000  0.15000
H   0.33333  0.16667  0.15000
H   0.66667  0.83333  0.15000
H   0.28500  0.14250 -0.12000
H   0.14250  0.42750 -0.12000
H   0.57250  0.85750 -0.12000

K_POINTS automatic
16 16 1 0 0 0 